6291
169 88
531 7
67 48
365 12
708 2
632 55
754 31
767 65
479 13
624 46
103 33
346 62
109 49
1022 80
394 8
337 5
616 12
332 11
1254 70
756 89
440 82
930 50
9 26
553 74
900 11
625 16
680 81
119 74
1200 48
260 67
50 59
514 23
819 9
499 76
767 79
499 14
180 15
645 10
336 97
687 91
85 54
618 67
1081 80
901 28
1082 78
830 71
849 9
38 26
740 52
927 6
44 66
163 80
819 15
839 23
1252 74
931 39
892 98
561 45
199 81
1124 36
189 38
959 73
432 7
1061 40
875 11
41 87
375 49
538 46
1147 44
423 53
273 89
51 41
956 77
670 88
669 32
784 94
439 5
837 49
47 30
780 49
